c t pmc
c file mc2023_track3_151.cnf
p cnf 272 1684
c p show 16 19 25 27 28 29 36 37 47 53 56 73 76 77 85 92 103 112 114 115 117 119 121 130 140 142 150 155 158 162 164 174 177 184 187 189 190 191 192 195 203 204 206 211 215 221 226 232 237 243 246 249 259 262 270 271 0
9 10 0
17 18 19 0
25 26 28 27 0
35 36 37 34 33 0
41 43 46 42 45 44 0
82 85 86 88 87 83 84 0
90 92 93 96 94 91 95 0
101 102 104 98 100 103 99 0
109 110 112 106 111 108 107 0
114 115 116 120 119 117 118 0
122 123 127 124 125 128 126 0
162 163 167 168 164 165 166 0
172 173 174 171 170 175 176 0
187 188 190 189 191 186 192 0
198 199 200 194 197 196 195 0
202 203 206 208 204 205 207 0
210 211 213 214 215 216 212 0
226 229 232 228 227 231 230 0
-266 -2 0
-267 -3 0
-268 -4 0
-269 -5 0
-270 -6 0
-271 -7 0
69 269 270 70 267 271 266 268 67 68 71 65 66 0
-242 -34 0
-243 -35 0
-244 -36 0
-245 -37 0
-246 -38 0
-39 -247 0
243 76 247 78 245 246 74 244 73 77 79 75 242 0
-74 -130 0
-75 -131 0
-76 -132 0
-77 -133 0
-134 -78 0
131 -239 136 134 133 130 132 0
266 76 269 74 270 268 267 78 271 79 73 77 75 0
-50 -90 0
-51 -91 0
-52 -92 0
-53 -93 0
-54 -94 0
131 52 54 133 134 130 49 53 51 132 136 50 0
-42 -218 0
-43 -219 0
-44 -220 0
-45 -221 0
-46 -222 0
258 219 264 220 224 221 222 218 259 261 262 260 0
-48 -224 0
-218 -82 0
-83 -219 0
-220 -84 0
-221 -85 0
-222 -86 0
-79 219 220 224 221 222 218 0
-88 -224 0
-2 -130 0
-3 -131 0
-4 -132 0
-5 -133 0
-134 -6 0
-255 131 136 130 133 134 132 0
-8 -136 0
-154 -130 0
-179 156 159 157 158 160 154 0
-156 -132 0
-157 -133 0
-134 -158 0
-151 130 136 131 133 134 132 0
-136 -160 0
-242 -90 0
-243 -91 0
-244 -92 0
-245 -93 0
-246 -94 0
-247 -95 0
-104 251 253 254 255 252 250 0
-10 -170 0
-11 -171 0
-12 -172 0
-13 -173 0
-14 -174 0
-15 -175 0
-16 -176 0
-42 150 151 147 152 149 148 0
-147 -139 0
-228 142 144 141 143 139 138 0
-149 -141 0
-150 -142 0
-151 -143 0
-144 -152 0
-2 -82 0
-3 -83 0
-4 -84 0
-5 -85 0
-6 -86 0
-7 -87 0
-8 -88 0
-234 -138 0
-235 -139 0
-188 142 138 144 141 143 139 0
-237 -141 0
-30 235 236 234 237 239 240 0
-239 -143 0
-144 -240 0
-98 -250 0
-99 -251 0
-100 -252 0
-101 -253 0
-102 -254 0
-103 -255 0
243 251 245 253 247 246 252 255 250 244 242 254 0
-18 148 150 147 151 152 149 0
-147 -27 0
-148 -28 0
-149 -29 0
-30 -150 0
-151 -31 0
-152 -32 0
-130 150 152 147 151 149 148 0
-227 -147 0
-228 -148 0
-229 -149 0
-230 -150 0
-231 -151 0
-152 -232 0
-202 -250 0
-203 -251 0
-204 -252 0
-205 -253 0
-206 -254 0
-207 -255 0
-112 251 253 254 255 252 250 0
-34 -138 0
-35 -139 0
-268 142 144 141 143 139 138 0
-37 -141 0
-38 -142 0
-39 -143 0
-40 -144 0
-234 -154 0
154 -27 160 158 159 156 157 0
-156 -236 0
-157 -237 0
-134 236 234 237 240 239 235 0
-159 -239 0
-160 -240 0
-170 -82 0
-171 -83 0
-172 -84 0
-173 -85 0
-174 -86 0
-175 -87 0
-88 -176 0
-74 -138 0
-75 -139 0
-180 141 143 142 139 144 138 0
-77 -141 0
-78 -142 0
-79 -143 0
-96 74 79 78 76 77 73 75 0
-202 -194 0
-203 -195 0
-204 -196 0
-205 -197 0
-206 -198 0
-207 -199 0
-200 -208 0
-34 148 150 147 151 152 149 0
-51 -147 0
-52 -148 0
-53 -149 0
-54 -150 0
49 -255 50 54 53 52 51 0
-266 -226 0
-267 -227 0
-268 -228 0
-269 -229 0
-270 -230 0
-271 -231 0
-136 74 79 78 76 73 75 77 0
-210 -82 0
-211 -83 0
-212 -84 0
-213 -85 0
-214 -86 0
-215 -87 0
-88 -216 0
-218 -2 0
-219 -3 0
-220 -4 0
-221 -5 0
-222 -6 0
-39 219 220 224 221 222 218 0
-224 -8 0
-178 -130 0
-179 -131 0
-180 -132 0
-181 -133 0
-134 -182 0
-71 130 136 131 133 134 132 0
-184 -136 0
-122 -194 0
-123 -195 0
-124 -196 0
-125 -197 0
-126 -198 0
-127 -199 0
-128 -200 0
-50 -218 0
-51 -219 0
-52 -220 0
-53 -221 0
-54 -222 0
-183 50 52 53 54 51 49 0
-218 -170 0
-219 -171 0
-220 -172 0
-221 -173 0
-222 -174 0
220 222 -239 219 224 218 221 0
-224 -176 0
-90 -218 0
-91 -219 0
-92 -220 0
-93 -221 0
-94 -222 0
-271 219 220 222 221 218 224 0
-96 -224 0
-10 -210 0
-11 -211 0
-12 -212 0
-13 -213 0
-14 -214 0
-15 -215 0
-16 -216 0
-154 -138 0
-59 158 160 159 156 157 154 0
138 -28 144 142 141 143 139 0
-157 -141 0
-158 -142 0
-159 -143 0
-160 -144 0
-242 -218 0
-243 -219 0
-244 -220 0
-245 -221 0
-246 -222 0
-143 220 221 222 218 219 224 0
-176 244 247 246 243 245 242 0
-34 -82 0
-35 -83 0
-36 -84 0
-37 -85 0
-38 -86 0
-39 -87 0
-88 -40 0
-154 -250 0
-19 154 160 158 159 156 157 0
-156 -252 0
-157 -253 0
-158 -254 0
-159 -255 0
-88 251 253 252 255 250 254 0
-242 150 151 148 149 147 152 0
-187 -147 0
-148 -188 0
-149 -189 0
-150 -190 0
-151 -191 0
-192 -152 0
-114 -226 0
-115 -227 0
-116 -228 0
-117 -229 0
-118 -230 0
-119 -231 0
-120 -232 0
-49 182 184 179 181 180 183 178 0
-42 -178 0
-179 -43 0
-44 -180 0
-45 -181 0
-46 -182 0
-47 -183 0
-48 -184 0
-162 -82 0
-163 -83 0
-164 -84 0
-165 -85 0
-166 -86 0
-167 -87 0
-168 -88 0
-57 182 184 178 181 180 183 179 0
-74 -178 0
-179 -75 0
-76 -180 0
-77 -181 0
-78 -182 0
-79 -183 0
-224 73 78 74 76 75 79 77 0
-250 -218 0
-219 -251 0
-252 -220 0
-253 -221 0
-254 -222 0
-103 220 221 222 219 224 218 0
-136 251 255 254 252 250 253 0
-242 -2 0
-243 -3 0
-244 -4 0
-245 -5 0
-246 -6 0
-247 -7 0
-152 244 247 246 245 243 242 0
-90 -2 0
-91 -3 0
-92 -4 0
-93 -5 0
-94 -6 0
-95 -7 0
-96 -8 0
-218 -178 0
-179 -219 0
-220 -180 0
-221 -181 0
-222 -182 0
220 61 62 224 59 58 218 221 219 64 57 60 222 0
-224 -184 0
-10 -82 0
-11 -83 0
-12 -84 0
-13 -85 0
-14 -86 0
-15 -87 0
-16 -88 0
-242 -58 0
-243 -59 0
-244 -60 0
-245 -61 0
-246 -62 0
61 -239 64 62 59 57 60 58 0
-136 244 246 247 243 245 242 0
-18 -138 0
-19 -139 0
-260 138 144 141 143 142 139 0
-21 -141 0
-22 -142 0
-23 -143 0
-24 -144 0
-250 150 152 147 151 149 148 0
-267 -147 0
-268 -148 0
-269 -149 0
-270 -150 0
-271 -151 0
-224 266 269 270 267 268 271 0
-58 -138 0
-59 -139 0
-4 138 144 142 141 143 139 0
-61 -141 0
-62 -142 0
-87 61 64 62 59 57 60 58 0
-144 -64 0
-10 148 150 147 151 152 149 0
-179 -147 0
-180 -148 0
-149 -181 0
-150 -182 0
-151 -183 0
-152 -184 0
-170 150 151 148 149 147 152 0
-67 -147 0
-68 -148 0
-69 -149 0
-70 -150 0
-71 -151 0
-232 251 253 252 255 254 250 0
-162 -2 0
-163 -3 0
-164 -4 0
-165 -5 0
-166 -6 0
-167 -7 0
-168 -8 0
-250 -234 0
-251 -235 0
-252 -236 0
-253 -237 0
-62 235 236 234 237 239 240 0
-255 -239 0
-192 251 253 254 255 252 250 0
-10 -138 0
-11 -139 0
-220 139 143 142 141 144 138 0
-13 -141 0
-14 -142 0
-15 -143 0
-16 -144 0
-202 -2 0
-203 -3 0
-204 -4 0
-205 -5 0
-206 -6 0
-207 -7 0
-8 -208 0
-130 -226 0
-131 -227 0
-228 -132 0
-133 -229 0
-134 -230 0
-247 130 136 131 133 134 132 0
-136 -232 0
-266 -66 0
-267 -67 0
-268 -68 0
-269 -69 0
-270 -70 0
-271 -71 0
-136 66 70 67 71 69 68 65 0
-18 -82 0
-19 -83 0
-20 -84 0
-21 -85 0
-22 -86 0
-23 -87 0
-88 -24 0
-114 -2 0
-115 -3 0
-116 -4 0
-117 -5 0
-118 -6 0
-119 -7 0
-120 -8 0
-57 -65 0
-58 -66 0
-59 -67 0
-60 -68 0
-61 -69 0
-62 -70 0
-159 62 64 59 61 57 60 58 0
65 -224 67 71 68 69 70 66 0
-18 -218 0
-19 -219 0
-20 -220 0
-21 -221 0
-22 -222 0
-231 220 221 218 219 222 224 0
-24 -224 0
-58 -218 0
-59 -219 0
-60 -220 0
-61 -221 0
-62 -222 0
-183 62 64 61 59 60 58 57 0
-64 -224 0
-242 -26 0
-243 -27 0
-244 -28 0
-245 -29 0
-246 -30 0
-247 -31 0
267 270 247 246 243 245 266 268 269 271 244 242 0
-58 150 151 147 152 148 149 0
-259 -147 0
-260 -148 0
-261 -149 0
-262 -150 0
258 261 62 61 59 259 260 262 58 64 57 60 264 0
-264 -152 0
-258 -2 0
-259 -3 0
-260 -4 0
-261 -5 0
-262 -6 0
-79 258 264 261 260 262 259 0
-264 -8 0
-114 -202 0
-115 -203 0
-116 -204 0
-117 -205 0
-118 -206 0
-119 -207 0
-120 -208 0
-34 -234 0
-35 -235 0
-36 -236 0
-37 -237 0
-22 235 236 234 237 240 239 0
-39 -239 0
-40 -240 0
-74 -234 0
-75 -235 0
-76 -236 0
-77 -237 0
-222 240 236 235 239 234 237 0
-79 -239 0
-88 74 79 76 78 77 75 73 0
-258 -210 0
-259 -211 0
-260 -212 0
-261 -213 0
-262 -214 0
-87 258 259 262 261 264 260 0
-264 -216 0
-42 -226 0
-227 -43 0
-228 -44 0
-229 -45 0
-230 -46 0
-231 -47 0
-48 -232 0
-122 -2 0
-123 -3 0
-124 -4 0
-125 -5 0
-126 -6 0
-127 -7 0
-128 -8 0
-202 -226 0
-203 -227 0
-204 -228 0
-205 -229 0
-206 -230 0
-207 -231 0
-232 -208 0
-122 -226 0
-123 -227 0
-124 -228 0
-125 -229 0
-126 -230 0
-127 -231 0
-128 -232 0
-42 -250 0
-43 -251 0
-44 -252 0
-45 -253 0
-46 -254 0
-47 -255 0
251 76 78 250 74 254 255 253 73 77 79 75 252 0
-90 -186 0
-187 -91 0
-92 -188 0
-93 -189 0
-94 -190 0
-95 -191 0
-192 -96 0
-130 -186 0
-187 -131 0
-132 -188 0
-133 -189 0
-134 -190 0
-71 220 221 219 224 222 218 0
-192 -136 0
-122 -250 0
-123 -251 0
-124 -252 0
-125 -253 0
-126 -254 0
-127 -255 0
-184 251 255 254 252 253 250 0
-98 -226 0
-99 -227 0
-100 -228 0
-101 -229 0
-102 -230 0
-103 -231 0
-104 -232 0
-242 -138 0
-243 -139 0
-44 142 138 144 141 143 139 0
-245 -141 0
-246 -142 0
-247 -143 0
-24 244 247 245 243 246 242 0
-218 -106 0
-107 -219 0
-220 -108 0
-221 -109 0
-222 -110 0
-159 220 221 222 219 224 218 0
-112 -224 0
-218 -26 0
-219 -27 0
-220 -28 0
-221 -29 0
-30 -222 0
-191 220 221 222 219 218 224 0
-224 -32 0
-210 148 150 147 151 152 149 0
-219 -147 0
-220 -148 0
-221 -149 0
-222 -150 0
-151 220 221 222 219 218 224 0
-224 -152 0
-114 -194 0
-115 -195 0
-116 -196 0
-117 -197 0
-118 -198 0
-119 -199 0
-120 -200 0
-218 -186 0
-187 -219 0
-220 -188 0
-221 -189 0
-222 -190 0
220 -31 224 221 222 218 219 0
-192 -224 0
-258 -18 0
-259 -19 0
-260 -20 0
-261 -21 0
-262 -22 0
-143 258 260 259 264 261 262 0
-264 -24 0
-2 149 150 147 148 151 152 0
-75 -147 0
-76 -148 0
-77 -149 0
-78 -150 0
-79 -151 0
-264 74 75 78 76 77 79 73 0
-50 -138 0
-51 -139 0
-212 138 144 142 141 139 143 0
-53 -141 0
-54 -142 0
-79 50 52 53 54 51 49 0
-266 -178 0
-267 -179 0
-268 -180 0
-269 -181 0
-270 -182 0
-271 -183 0
-48 266 269 270 267 268 271 0
-258 -226 0
-259 -227 0
-260 -228 0
-261 -229 0
-262 -230 0
-71 258 264 261 260 259 262 0
-264 -232 0
-202 -82 0
-203 -83 0
-204 -84 0
-205 -85 0
-206 -86 0
-207 -87 0
-88 -208 0
-74 148 150 147 151 152 149 0
-3 -147 0
-4 -148 0
-5 -149 0
-6 -150 0
-7 -151 0
-8 -152 0
-122 -202 0
-123 -203 0
-124 -204 0
-125 -205 0
-126 -206 0
-127 -207 0
-128 -208 0
-242 -50 0
-243 -51 0
-244 -52 0
-245 -53 0
-246 -54 0
49 -231 54 50 53 51 52 0
-266 -242 0
-267 -243 0
-268 -244 0
-269 -245 0
-270 -246 0
-271 -247 0
269 270 -240 267 268 266 271 0
-90 -226 0
-91 -227 0
-92 -228 0
-93 -229 0
-94 -230 0
-95 -231 0
-96 -232 0
-242 -210 0
-243 -211 0
-244 -212 0
-245 -213 0
-246 -214 0
-247 -215 0
-264 243 244 247 245 246 242 0
-74 -250 0
-75 -251 0
-76 -252 0
-77 -253 0
-78 -254 0
-79 -255 0
-40 244 247 246 243 245 242 0
-82 -26 0
-83 -27 0
-84 -28 0
-85 -29 0
-30 -86 0
-87 -31 0
-88 -32 0
-18 -170 0
-19 -171 0
-20 -172 0
-21 -173 0
-22 -174 0
-23 -175 0
-24 -176 0
-194 -106 0
-107 -195 0
-196 -108 0
-197 -109 0
-198 -110 0
-199 -111 0
-112 -200 0
-258 -154 0
-267 154 160 158 156 157 159 0
-260 -156 0
-261 -157 0
-262 -158 0
258 261 -239 262 264 259 260 0
-264 -160 0
-218 149 150 147 151 152 148 0
-147 -211 0
-212 -148 0
-149 -213 0
-150 -214 0
-151 -215 0
-152 -216 0
-258 -10 0
-11 -259 0
-260 -12 0
-13 -261 0
-14 -262 0
-175 258 261 259 264 260 262 0
-16 -264 0
-33 182 184 178 179 180 183 181 0
-66 -178 0
-179 -67 0
-68 -180 0
-69 -181 0
-70 -182 0
-71 -183 0
-96 66 67 68 71 70 69 65 0
-34 -154 0
-11 154 160 158 159 157 156 0
-36 -156 0
-37 -157 0
-38 -158 0
-39 -159 0
-40 -160 0
-154 -218 0
-171 154 160 158 159 156 157 0
-156 -220 0
-157 -221 0
-222 -158 0
-111 220 221 219 224 218 222 0
-224 -160 0
-258 -218 0
-259 -219 0
-260 -220 0
-261 -221 0
-262 -222 0
258 -31 264 261 260 259 262 0
-264 -224 0
-154 -74 0
-211 154 160 158 157 159 156 0
-156 -76 0
-157 -77 0
-78 -158 0
-79 -159 0
-64 77 78 74 76 75 79 73 0
-50 -130 0
-51 -131 0
-52 -132 0
-53 -133 0
-54 -134 0
-47 130 136 131 134 133 132 0
-258 -178 0
-259 -179 0
-260 -180 0
-261 -181 0
-262 -182 0
-247 258 261 259 260 264 262 0
-264 -184 0
-258 -34 0
-259 -35 0
-260 -36 0
-261 -37 0
-262 -38 0
-39 258 264 261 260 259 262 0
-264 -40 0
-90 -178 0
-91 -179 0
-92 -180 0
-93 -181 0
-94 -182 0
-95 -183 0
-96 -184 0
-2 -234 0
-3 -235 0
-4 -236 0
-5 -237 0
-182 240 237 239 235 234 236 0
-7 -239 0
-8 -240 0
-266 -50 0
-267 -51 0
-268 -52 0
-269 -53 0
-270 -54 0
-159 52 54 51 50 53 49 0
-170 -234 0
-171 -235 0
-172 -236 0
-173 -237 0
-214 235 236 234 239 237 240 0
-239 -175 0
-176 -240 0
-258 -242 0
-259 -243 0
-260 -244 0
-261 -245 0
-262 -246 0
-183 258 264 261 260 262 259 0
-216 244 247 246 243 245 242 0
-170 -138 0
-171 -139 0
-68 142 144 141 143 139 138 0
-173 -141 0
-174 -142 0
-175 -143 0
-176 -144 0
-242 -178 0
-243 -179 0
-244 -180 0
-245 -181 0
-246 -182 0
-247 -183 0
-16 244 247 246 245 243 242 0
-90 -250 0
-91 -251 0
-92 -252 0
-93 -253 0
-94 -254 0
-95 -255 0
-168 251 253 252 255 250 254 0
-218 -226 0
-227 -219 0
-228 -220 0
-229 -221 0
-230 -222 0
-23 220 224 219 222 218 221 0
-224 -232 0
-114 -250 0
-115 -251 0
-116 -252 0
-117 -253 0
-118 -254 0
-119 -255 0
-8 251 255 250 252 254 253 0
-66 -226 0
-227 -67 0
-228 -68 0
-229 -69 0
-230 -70 0
-71 -231 0
-264 65 67 70 68 69 71 66 0
-258 149 150 151 148 147 152 0
-59 -147 0
-60 -148 0
-61 -149 0
-62 -150 0
-151 258 259 260 264 261 262 0
-64 -152 0
-194 -250 0
-195 -251 0
-196 -252 0
-197 -253 0
-198 -254 0
-199 -255 0
-152 251 253 254 255 252 250 0
-170 -26 0
-171 -27 0
-172 -28 0
-173 -29 0
-30 -174 0
-175 -31 0
-176 -32 0
-66 150 151 147 148 152 149 0
-147 -171 0
-172 -148 0
-149 -173 0
-150 -174 0
-151 -175 0
-152 -176 0
-66 -138 0
-67 -139 0
-172 138 144 142 141 143 139 0
-69 -141 0
-70 -142 0
-71 -143 0
65 -144 67 70 71 69 68 66 0
-50 -82 0
-83 -51 0
-52 -84 0
-53 -85 0
-54 -86 0
49 -87 54 52 50 53 51 0
-42 -130 0
-43 -131 0
-44 -132 0
-45 -133 0
-134 -46 0
-95 49 54 51 50 53 52 0
-48 -136 0
-65 182 184 178 181 180 183 179 0
-34 -178 0
-179 -35 0
-36 -180 0
-37 -181 0
-38 -182 0
-39 -183 0
-40 -184 0
-258 -26 0
-259 -27 0
-260 -28 0
-261 -29 0
-262 -30 0
-47 220 221 224 219 222 218 0
-264 -32 0
-258 -170 0
-259 -171 0
-260 -172 0
-261 -173 0
-262 -174 0
-15 258 264 261 259 262 260 0
-264 -176 0
-2 -154 0
-51 154 158 159 156 157 160 0
-4 -156 0
-5 -157 0
-6 -158 0
-7 -159 0
-8 -160 0
-154 -50 0
-3 154 158 160 156 157 159 0
-156 -52 0
-157 -53 0
-54 -158 0
-271 51 52 49 50 53 54 0
-258 -234 0
-259 -235 0
-260 -236 0
-261 -237 0
-54 236 237 239 240 235 234 0
-159 258 261 262 260 264 259 0
-264 -240 0
-178 150 151 147 152 148 149 0
-11 -147 0
-12 -148 0
-13 -149 0
-14 -150 0
-15 -151 0
-16 -152 0
-194 -2 0
-195 -3 0
-196 -4 0
-197 -5 0
-198 -6 0
-199 -7 0
-200 -8 0
-218 -130 0
-219 -131 0
-220 -132 0
-221 -133 0
-134 -222 0
-191 130 136 131 133 134 132 0
-224 -136 0
-258 -66 0
-259 -67 0
-260 -68 0
-261 -69 0
-262 -70 0
-231 258 264 260 259 262 261 0
65 -232 71 67 70 69 68 66 0
-170 -210 0
-171 -211 0
-172 -212 0
-173 -213 0
-174 -214 0
-175 -215 0
-176 -216 0
-98 -194 0
-99 -195 0
-100 -196 0
-101 -197 0
-102 -198 0
-199 -103 0
-104 -200 0
-266 -82 0
-267 -83 0
-268 -84 0
-269 -85 0
-270 -86 0
-271 -87 0
-192 266 269 270 267 268 271 0
-10 -234 0
-11 -235 0
-12 -236 0
-13 -237 0
-270 235 236 237 239 240 234 0
-15 -239 0
-16 -240 0
-2 -106 0
-107 -3 0
-4 -108 0
-5 -109 0
-6 -110 0
-7 -111 0
-112 -8 0
-57 -73 0
-58 -74 0
-59 -75 0
-60 -76 0
-61 -77 0
-62 -78 0
-231 61 64 62 59 60 58 57 0
-160 76 79 78 74 73 75 77 0
-210 -138 0
-211 -139 0
-52 142 144 141 143 139 138 0
-213 -141 0
-214 -142 0
-215 -143 0
-216 -144 0
-242 -18 0
-243 -19 0
-244 -20 0
-245 -21 0
-22 -246 0
-23 -247 0
-144 244 247 243 245 246 242 0
-58 -226 0
-227 -59 0
-228 -60 0
-229 -61 0
-62 -230 0
57 -79 61 59 62 60 58 64 0
-64 -232 0
-266 -186 0
-267 -187 0
-268 -188 0
-269 -189 0
-270 -190 0
-271 -191 0
-88 266 269 270 267 268 271 0
-266 150 152 147 148 149 151 0
-147 -251 0
-148 -252 0
-149 -253 0
-150 -254 0
-151 -255 0
-200 251 253 255 250 252 254 0
-250 -2 0
-3 -251 0
-252 -4 0
-253 -5 0
-254 -6 0
-7 -255 0
-120 251 253 252 255 250 254 0
-154 -210 0
-75 158 159 156 157 160 154 0
-156 -212 0
-157 -213 0
-214 -158 0
-159 -215 0
-216 -160 0
-242 -74 0
-243 -75 0
-244 -76 0
-245 -77 0
-246 -78 0
-79 -247 0
-48 251 253 254 255 252 250 0
-194 -226 0
-195 -227 0
-228 -196 0
-197 -229 0
-198 -230 0
-199 -231 0
-200 -232 0
-42 -138 0
-43 -139 0
-244 142 138 144 141 143 139 0
-45 -141 0
-46 -142 0
-47 -143 0
-144 -48 0
-202 -162 0
-203 -163 0
-204 -164 0
-205 -165 0
-206 -166 0
-207 -167 0
-168 -208 0
-154 -170 0
-219 154 156 157 159 160 158 0
-156 -172 0
-157 -173 0
-174 -158 0
-159 -175 0
-176 -160 0
-234 -82 0
-83 -235 0
-236 -84 0
-237 -85 0
-86 236 234 240 239 235 237 0
-87 -239 0
-88 -240 0
-258 -58 0
-259 -59 0
-260 -60 0
-261 -61 0
-262 -62 0
-151 58 61 59 62 60 64 57 0
-264 -64 0
-266 -234 0
-267 -235 0
-268 -236 0
-269 -237 0
-14 235 236 234 237 239 240 0
-271 -239 0
244 247 -32 245 243 246 242 0
-10 -154 0
-35 154 160 159 156 157 158 0
-12 -156 0
-13 -157 0
-14 -158 0
-15 -159 0
-16 -160 0
-242 -130 0
-243 -131 0
-244 -132 0
-245 -133 0
-246 -134 0
-231 130 136 133 134 131 132 0
-64 244 247 246 243 245 242 0
-98 -218 0
-99 -219 0
-100 -220 0
-101 -221 0
-102 -222 0
-255 220 221 219 218 224 222 0
-104 -224 0
-258 -82 0
-259 -83 0
-260 -84 0
-261 -85 0
-262 -86 0
-215 258 264 261 259 262 260 0
-264 -88 0
-218 -138 0
-219 -139 0
-12 138 144 142 141 139 143 0
-221 -141 0
-222 -142 0
-247 220 221 222 224 218 219 0
-144 -224 0
-226 -106 0
-107 -227 0
-228 -108 0
-229 -109 0
-230 -110 0
-231 -111 0
-112 -232 0
-186 150 152 147 149 148 151 0
-243 -147 0
-244 -148 0
-245 -149 0
-246 -150 0
-247 -151 0
-8 244 246 245 243 247 242 0
-226 -186 0
-187 -227 0
-228 -188 0
-229 -189 0
-230 -190 0
-231 -191 0
-192 -232 0
-162 -250 0
-163 -251 0
-164 -252 0
-165 -253 0
-166 -254 0
-167 -255 0
-96 251 253 254 255 252 250 0
-162 -226 0
-163 -227 0
-164 -228 0
-165 -229 0
-166 -230 0
-167 -231 0
-168 -232 0
-250 -226 0
-227 -251 0
-228 -252 0
-253 -229 0
-254 -230 0
-255 -231 0
67 71 250 251 69 70 68 252 254 253 66 65 255 0
-82 -226 0
-83 -227 0
-228 -84 0
-85 -229 0
-86 -230 0
-87 -231 0
-88 -232 0
-2 -138 0
-3 -139 0
-60 138 144 141 143 139 142 0
-5 -141 0
-6 -142 0
-7 -143 0
-144 -8 0
-50 -234 0
-51 -235 0
-52 -236 0
-53 -237 0
-262 234 235 240 239 236 237 0
-71 49 54 51 50 53 52 0
-266 -42 0
-267 -43 0
-268 -44 0
-269 -45 0
-270 -46 0
-271 -47 0
-184 266 269 270 267 268 271 0
-210 -234 0
-211 -235 0
-212 -236 0
-213 -237 0
-174 235 236 234 237 240 239 0
-215 -239 0
-216 -240 0
-258 -74 0
-259 -75 0
-260 -76 0
-261 -77 0
-262 -78 0
-7 258 264 260 259 262 261 0
-152 77 78 74 76 73 75 79 0
-90 -66 0
-91 -67 0
-92 -68 0
-93 -69 0
-94 -70 0
-71 -95 0
65 -184 67 69 70 68 71 66 0
-258 -138 0
-259 -139 0
-20 138 144 142 143 139 141 0
-261 -141 0
-262 -142 0
-23 258 261 260 259 262 264 0
-264 -144 0
-74 -82 0
-83 -75 0
-76 -84 0
-77 -85 0
-78 -86 0
-87 -79 0
76 79 -240 78 74 75 73 77 0
-73 182 184 179 181 180 183 178 0
-58 -178 0
-179 -59 0
-60 -180 0
-61 -181 0
-62 -182 0
-183 220 224 221 219 222 218 0
-64 -184 0
-138 -26 0
-139 -27 0
-156 138 139 144 141 143 142 0
-141 -29 0
-30 -142 0
-143 -31 0
-144 -32 0
-266 -154 0
-259 159 160 158 157 156 154 0
-268 -156 0
-269 -157 0
-270 -158 0
-271 -159 0
-144 266 269 270 267 268 271 0
-50 150 151 147 148 152 149 0
-35 -147 0
-36 -148 0
-37 -149 0
-38 -150 0
-39 -151 0
-40 -152 0
-178 -82 0
-83 -179 0
-180 -84 0
-181 -85 0
-182 -86 0
-87 -183 0
-88 -184 0
-266 -218 0
-267 -219 0
-268 -220 0
-269 -221 0
-270 -222 0
-95 220 221 222 219 218 224 0
-152 266 269 270 267 268 271 0
-178 -250 0
-179 -251 0
-180 -252 0
-181 -253 0
-182 -254 0
-183 -255 0
-128 251 253 255 250 254 252 0
-2 -226 0
-227 -3 0
-228 -4 0
-229 -5 0
-230 -6 0
-231 -7 0
-8 -232 0
-50 -226 0
-51 -227 0
-52 -228 0
-53 -229 0
-54 -230 0
-247 49 52 51 50 53 54 0
-242 -170 0
-243 -171 0
-244 -172 0
-245 -173 0
-246 -174 0
-247 -175 0
-224 242 245 247 243 246 244 0
-242 -250 0
-243 -251 0
-244 -252 0
-245 -253 0
-246 -254 0
-247 -255 0
-96 246 247 245 243 242 244 0
-266 -74 0
-267 -75 0
-268 -76 0
-269 -77 0
-270 -78 0
-271 -79 0
-232 266 269 270 268 267 271 0
-138 -178 0
-179 -139 0
-76 138 144 141 143 139 142 0
-181 -141 0
-182 -142 0
-183 -143 0
-144 -184 0
-178 -234 0
-179 -235 0
-180 -236 0
-181 -237 0
-6 234 236 240 239 235 237 0
-183 -239 0
-184 -240 0
-234 -218 0
-235 -219 0
-236 -220 0
-237 -221 0
-78 236 237 240 239 235 234 0
-175 220 222 224 218 221 219 0
-224 -240 0
-266 -138 0
-267 -139 0
-36 142 138 141 143 139 144 0
-269 -141 0
-270 -142 0
-271 -143 0
-160 266 269 267 268 270 271 0
-18 -154 0
-251 154 158 159 156 157 160 0
-20 -156 0
-21 -157 0
-22 -158 0
-23 -159 0
-24 -160 0
-90 -74 0
-91 -75 0
-92 -76 0
-93 -77 0
-94 -78 0
-95 -79 0
-144 74 76 78 73 75 77 79 0
-218 -66 0
-219 -67 0
-220 -68 0
-221 -69 0
-222 -70 0
131 221 222 130 133 134 218 219 224 132 136 220 0
65 -64 67 70 68 69 71 66 0
-58 -154 0
-139 158 160 157 159 156 154 0
-60 -156 0
-61 -157 0
-62 -158 0
-71 59 64 62 61 60 58 57 0
-64 -160 0
-66 -130 0
-67 -131 0
-68 -132 0
-69 -133 0
-134 -70 0
-183 131 136 134 133 130 132 0
266 267 270 268 271 269 -8 0
-73 -49 0
-74 -50 0
-75 -51 0
-76 -52 0
-77 -53 0
-78 -54 0
-143 51 52 50 53 54 49 0
-41 178 184 179 181 180 183 182 0
-50 -178 0
-179 -51 0
-52 -180 0
-53 -181 0
-54 -182 0
-199 220 221 219 224 218 222 0
-2 -186 0
-187 -3 0
-4 -188 0
-5 -189 0
-6 -190 0
-7 -191 0
-192 -8 0
-226 150 151 147 152 149 148 0
-147 -131 0
-132 -148 0
-149 -133 0
-134 -150 0
-159 131 136 130 133 134 132 0
-152 -136 0
-50 -250 0
-51 -251 0
-52 -252 0
-53 -253 0
-54 -254 0
49 -151 52 51 50 53 54 0
-66 -250 0
-67 -251 0
-68 -252 0
-69 -253 0
-70 -254 0
-71 -255 0
67 68 70 69 71 -152 65 66 0
-10 -242 0
-243 -11 0
-12 -244 0
-245 -13 0
-246 -14 0
-15 -247 0
-184 245 247 243 246 242 244 0
-98 -2 0
-99 -3 0
-100 -4 0
-101 -5 0
-102 -6 0
-103 -7 0
-104 -8 0
-58 -82 0
-59 -83 0
-60 -84 0
-61 -85 0
-62 -86 0
-143 59 62 61 64 60 57 58 0
-88 -64 0
-138 -186 0
-139 -187 0
138 139 -236 144 141 143 142 0
-141 -189 0
-190 -142 0
-143 -191 0
-192 -144 0
-178 -226 0
-227 -179 0
-228 -180 0
-229 -181 0
-230 -182 0
-231 -183 0
-184 -232 0
-130 -250 0
-131 -251 0
-132 -252 0
-133 -253 0
-134 -254 0
-7 131 136 130 133 134 132 0
-224 251 255 254 252 253 250 0
-18 -234 0
-19 -235 0
-20 -236 0
-21 -237 0
-38 234 235 237 239 240 236 0
-23 -239 0
-24 -240 0
-58 -234 0
-59 -235 0
-60 -236 0
-61 -237 0
-254 236 234 237 239 240 235 0
-247 61 62 59 57 60 58 64 0
-64 -240 0
-26 148 150 151 152 149 147 0
-19 -147 0
-20 -148 0
-21 -149 0
-22 -150 0
-23 -151 0
-24 -152 0
-42 -90 0
-91 -43 0
-92 -44 0
-93 -45 0
-94 -46 0
-95 -47 0
-96 -48 0
-34 -218 0
-35 -219 0
-36 -220 0
-37 -221 0
-38 -222 0
-7 220 221 219 222 218 224 0
-40 -224 0
-154 -26 0
-235 158 160 157 159 156 154 0
-156 -28 0
-157 -29 0
-30 -158 0
-159 -31 0
-160 -32 0
-74 -218 0
-75 -219 0
-76 -220 0
-77 -221 0
-78 -222 0
-87 220 222 219 224 218 221 0
-184 76 78 74 73 75 77 79 0
-194 -218 0
-195 -219 0
-196 -220 0
-197 -221 0
-198 -222 0
50 219 221 51 53 224 222 218 220 54 52 49 0
-200 -224 0
-65 -49 0
-66 -50 0
-67 -51 0
-68 -52 0
-69 -53 0
-70 -54 0
52 54 -239 50 53 51 49 0
-138 147 150 148 151 149 152 0
-147 -43 0
-44 -148 0
-149 -45 0
-150 -46 0
-151 -47 0
-152 -48 0
-178 -154 0
-131 154 158 159 156 157 160 0
-180 -156 0
-181 -157 0
-182 -158 0
-183 -159 0
-184 -160 0
-170 -2 0
-171 -3 0
-172 -4 0
-173 -5 0
-174 -6 0
-175 -7 0
-176 -8 0
-210 -2 0
-211 -3 0
-212 -4 0
-213 -5 0
-214 -6 0
-215 -7 0
-216 -8 0
-130 -234 0
-131 -235 0
-132 -236 0
-133 -237 0
-158 235 237 240 239 234 236 0
130 131 133 134 132 136 -79 0
-136 -240 0
-82 -250 0
-83 -251 0
-84 -252 0
-85 -253 0
-86 -254 0
-87 -255 0
-160 251 255 254 252 250 253 0
-226 -138 0
-139 -227 0
-148 142 141 143 144 139 138 0
-141 -229 0
-230 -142 0
-143 -231 0
-232 -144 0
-106 -250 0
-107 -251 0
-108 -252 0
-109 -253 0
-110 -254 0
-111 -255 0
-208 251 253 255 252 250 254 0
-186 -250 0
-251 -187 0
-188 -252 0
-189 -253 0
-190 -254 0
-191 -255 0
254 251 -240 255 252 250 253 0
-26 -234 0
-27 -235 0
-28 -236 0
-29 -237 0
-142 234 235 237 240 239 236 0
-31 -239 0
-32 -240 0
1 0
-265 0
-129 0
-81 0
-217 0
-241 0
-89 0
-161 0
-201 0
-113 0
-257 0
-121 0
-145 0
-233 0
-153 0
-193 0
-105 0
-249 0
-137 0
-225 0
-185 0
-97 0
-169 0
-209 0
-56 0
177 0
72 0
63 0
272 0
135 0
80 0
55 0
248 0
155 0
238 0
263 0
140 0
146 0
256 0
223 0
